
Gurobi 8.1.0 (linux64, Python) logging started Sun May  5 23:02:04 2019

Academic license - for non-commercial use only
Changed value of parameter Heuristics to 0.0
   Prev: 0.05  Min: 0.0  Max: 1.0  Default: 0.05
Changed value of parameter Cuts to 0
   Prev: -1  Min: -1  Max: 3  Default: -1
Optimize a model with 6327 rows, 4711 columns and 33905 nonzeros
Variable types: 16 continuous, 4695 integer (75 binary)
Coefficient statistics:
  Matrix range     [1e+00, 1e+06]
  Objective range  [1e-04, 1e+00]
  Bounds range     [1e+00, 2e+02]
  RHS range        [1e+00, 1e+06]
Presolve removed 457 rows and 410 columns
Presolve time: 0.10s
Presolved: 5870 rows, 4301 columns, 25955 nonzeros
Variable types: 16 continuous, 4285 integer (2080 binary)

Root relaxation: objective 1.499388e+01, 4965 iterations, 0.62 seconds

    Nodes    |    Current Node    |     Objective Bounds      |     Work
 Expl Unexpl |  Obj  Depth IntInf | Incumbent    BestBd   Gap | It/Node Time

     0     0   14.99388    0  216          -   14.99388      -     -    0s
     0     0   14.99388    0  208          -   14.99388      -     -    1s
     0     2   14.99388    0  198          -   14.99388      -     -    2s
     9    11   13.99396    3  132          -   14.99324      -   694    5s
    88    79   13.99272   16   69          -   14.99324      -   303   10s

Gurobi 8.1.0 (linux64, Python) logging started Mon May  6 00:15:27 2019

Academic license - for non-commercial use only
Changed value of parameter Heuristics to 0.0
   Prev: 0.05  Min: 0.0  Max: 1.0  Default: 0.05
Changed value of parameter Cuts to 0
   Prev: -1  Min: -1  Max: 3  Default: -1
Optimize a model with 338 rows, 265 columns and 1473 nonzeros
Variable types: 4 continuous, 261 integer (9 binary)
Coefficient statistics:
  Matrix range     [1e+00, 1e+06]
  Objective range  [1e-04, 1e+00]
  Bounds range     [1e+00, 2e+02]
  RHS range        [1e+00, 1e+06]
Presolve removed 62 rows and 66 columns
Presolve time: 0.00s
Presolved: 276 rows, 199 columns, 1164 nonzeros
Variable types: 4 continuous, 195 integer (96 binary)

Root relaxation: objective 2.995789e+00, 207 iterations, 0.00 seconds

    Nodes    |    Current Node    |     Objective Bounds      |     Work
 Expl Unexpl |  Obj  Depth IntInf | Incumbent    BestBd   Gap | It/Node Time

     0     0    2.99579    0   42          -    2.99579      -     -    0s
     0     0    2.99579    0   39          -    2.99579      -     -    0s
     0     2    2.99579    0   39          -    2.99579      -     -    0s
*   11     8               6       2.9908454    2.99492  0.14%  10.8    0s

Explored 26 nodes (503 simplex iterations) in 0.04 seconds
Thread count was 4 (of 4 available processors)

Solution count 1: 2.99085 

Optimal solution found (tolerance 1.00e-04)
Best objective 2.990845353198e+00, best bound 2.990845353198e+00, gap 0.0000%

Gurobi 8.1.0 (linux64, Python) logging started Mon May  6 00:18:08 2019

Academic license - for non-commercial use only
Changed value of parameter Heuristics to 0.0
   Prev: 0.05  Min: 0.0  Max: 1.0  Default: 0.05
Changed value of parameter Cuts to 0
   Prev: -1  Min: -1  Max: 3  Default: -1
Optimize a model with 338 rows, 265 columns and 1473 nonzeros
Variable types: 4 continuous, 261 integer (9 binary)
Coefficient statistics:
  Matrix range     [1e+00, 1e+06]
  Objective range  [1e-04, 1e+00]
  Bounds range     [1e+00, 2e+02]
  RHS range        [1e+00, 1e+06]
Presolve removed 62 rows and 66 columns
Presolve time: 0.00s
Presolved: 276 rows, 199 columns, 1164 nonzeros
Variable types: 4 continuous, 195 integer (96 binary)

Root relaxation: objective 2.996508e+00, 159 iterations, 0.00 seconds

    Nodes    |    Current Node    |     Objective Bounds      |     Work
 Expl Unexpl |  Obj  Depth IntInf | Incumbent    BestBd   Gap | It/Node Time

     0     0    2.99651    0   38          -    2.99651      -     -    0s
     0     0    2.99651    0   38          -    2.99651      -     -    0s
     0     2    2.99651    0   38          -    2.99651      -     -    0s
*   11    12               6       1.9795790    2.99634  51.4%  17.5    0s
*   18     7               8       2.9887115    2.99634  0.26%  12.5    0s

Explored 27 nodes (471 simplex iterations) in 0.03 seconds
Thread count was 4 (of 4 available processors)

Solution count 2: 2.98871 1.97958 

Optimal solution found (tolerance 1.00e-04)
Best objective 2.988711492839e+00, best bound 2.988715490535e+00, gap 0.0001%

Gurobi 8.1.0 (linux64, Python) logging started Mon May  6 00:18:12 2019

Academic license - for non-commercial use only
Changed value of parameter Heuristics to 0.0
   Prev: 0.05  Min: 0.0  Max: 1.0  Default: 0.05
Changed value of parameter Cuts to 0
   Prev: -1  Min: -1  Max: 3  Default: -1
Optimize a model with 338 rows, 265 columns and 1473 nonzeros
Variable types: 4 continuous, 261 integer (9 binary)
Coefficient statistics:
  Matrix range     [1e+00, 1e+06]
  Objective range  [1e-04, 1e+00]
  Bounds range     [1e+00, 2e+02]
  RHS range        [1e+00, 1e+06]
Presolve removed 123 rows and 93 columns
Presolve time: 0.01s
Presolved: 215 rows, 172 columns, 911 nonzeros
Variable types: 3 continuous, 169 integer (82 binary)

Root relaxation: objective 2.991757e+00, 128 iterations, 0.00 seconds

    Nodes    |    Current Node    |     Objective Bounds      |     Work
 Expl Unexpl |  Obj  Depth IntInf | Incumbent    BestBd   Gap | It/Node Time

     0     0    2.99176    0   40          -    2.99176      -     -    0s
     0     0    2.99176    0   40          -    2.99176      -     -    0s
     0     0    2.99176    0   40          -    2.99176      -     -    0s
     0     0    2.99176    0   40          -    2.99176      -     -    0s
     0     2    2.99176    0   40          -    2.99176      -     -    0s
*   23    22              11       2.9795372    2.99074  0.38%  12.4    0s
*   44    19              19       2.9799380    2.99074  0.36%   7.8    0s

Explored 162 nodes (1121 simplex iterations) in 0.08 seconds
Thread count was 4 (of 4 available processors)

Solution count 2: 2.97994 2.97954 

Optimal solution found (tolerance 1.00e-04)
Best objective 2.979937971710e+00, best bound 2.979937971710e+00, gap 0.0000%

Gurobi 8.1.0 (linux64, Python) logging started Mon May  6 00:18:18 2019

Academic license - for non-commercial use only
Changed value of parameter Heuristics to 0.0
   Prev: 0.05  Min: 0.0  Max: 1.0  Default: 0.05
Changed value of parameter Cuts to 0
   Prev: -1  Min: -1  Max: 3  Default: -1
Optimize a model with 338 rows, 265 columns and 1473 nonzeros
Variable types: 4 continuous, 261 integer (9 binary)
Coefficient statistics:
  Matrix range     [1e+00, 1e+06]
  Objective range  [1e-04, 1e+00]
  Bounds range     [1e+00, 2e+02]
  RHS range        [1e+00, 1e+06]
Presolve removed 77 rows and 78 columns
Presolve time: 0.01s
Presolved: 261 rows, 187 columns, 1086 nonzeros
Variable types: 4 continuous, 183 integer (90 binary)

Root relaxation: objective 2.993482e+00, 162 iterations, 0.00 seconds

    Nodes    |    Current Node    |     Objective Bounds      |     Work
 Expl Unexpl |  Obj  Depth IntInf | Incumbent    BestBd   Gap | It/Node Time

     0     0    2.99348    0   40          -    2.99348      -     -    0s
     0     0    2.99348    0   40          -    2.99348      -     -    0s
     0     2    2.99348    0   38          -    2.99348      -     -    0s
*   30    11               8       2.9858796    2.99152  0.19%   9.6    0s

Explored 44 nodes (528 simplex iterations) in 0.03 seconds
Thread count was 4 (of 4 available processors)

Solution count 1: 2.98588 

Optimal solution found (tolerance 1.00e-04)
Best objective 2.985879619243e+00, best bound 2.985879619243e+00, gap 0.0000%

Gurobi 8.1.0 (linux64, Python) logging started Mon May  6 00:18:50 2019

Academic license - for non-commercial use only
Changed value of parameter Heuristics to 0.0
   Prev: 0.05  Min: 0.0  Max: 1.0  Default: 0.05
Changed value of parameter Cuts to 0
   Prev: -1  Min: -1  Max: 3  Default: -1
Optimize a model with 338 rows, 265 columns and 1473 nonzeros
Variable types: 4 continuous, 261 integer (9 binary)
Coefficient statistics:
  Matrix range     [1e+00, 1e+06]
  Objective range  [1e-04, 1e+00]
  Bounds range     [1e+00, 2e+02]
  RHS range        [1e+00, 1e+06]
Presolve removed 62 rows and 66 columns
Presolve time: 0.00s
Presolved: 276 rows, 199 columns, 1170 nonzeros
Variable types: 4 continuous, 195 integer (96 binary)

Root relaxation: objective 2.994294e+00, 202 iterations, 0.00 seconds

    Nodes    |    Current Node    |     Objective Bounds      |     Work
 Expl Unexpl |  Obj  Depth IntInf | Incumbent    BestBd   Gap | It/Node Time

     0     0    2.99429    0   37          -    2.99429      -     -    0s
     0     0    2.99429    0   37          -    2.99429      -     -    0s
     0     2    2.99429    0   37          -    2.99429      -     -    0s
*   61    10              10      -0.0000000    2.98552      -   7.4    0s
*   62    10              10       0.9911062    2.98552   201%   7.4    0s
*   93     7              19       1.9718397    2.98298  51.3%   5.8    0s
*  122     0              17       1.9770713    2.96783  50.1%   5.0    0s

Explored 129 nodes (878 simplex iterations) in 0.05 seconds
Thread count was 4 (of 4 available processors)

Solution count 4: 1.97707 1.97184 0.991106 -1.63691e-16 

Optimal solution found (tolerance 1.00e-04)
Best objective 1.977071299232e+00, best bound 1.977071299232e+00, gap 0.0000%

Gurobi 8.1.0 (linux64, Python) logging started Mon May  6 00:39:30 2019

Academic license - for non-commercial use only
Changed value of parameter Heuristics to 0.0
   Prev: 0.05  Min: 0.0  Max: 1.0  Default: 0.05
Changed value of parameter Cuts to 0
   Prev: -1  Min: -1  Max: 3  Default: -1
Optimize a model with 1075 rows, 821 columns and 5359 nonzeros
Variable types: 8 continuous, 813 integer (21 binary)
Coefficient statistics:
  Matrix range     [1e+00, 1e+06]
  Objective range  [1e-04, 1e+00]
  Bounds range     [1e+00, 2e+02]
  RHS range        [1e+00, 1e+06]
Presolve removed 114 rows and 126 columns
Presolve time: 0.01s
Presolved: 961 rows, 695 columns, 4743 nonzeros
Variable types: 8 continuous, 687 integer (336 binary)

Root relaxation: objective 6.993964e+00, 812 iterations, 0.03 seconds

    Nodes    |    Current Node    |     Objective Bounds      |     Work
 Expl Unexpl |  Obj  Depth IntInf | Incumbent    BestBd   Gap | It/Node Time

     0     0    6.99396    0   59          -    6.99396      -     -    0s
     0     0    6.99396    0   59          -    6.99396      -     -    0s
     0     2    6.99396    0   59          -    6.99396      -     -    0s
*   89    38              31       6.9876630    6.99361  0.09%  28.4    0s
*  168    23              25       6.9904804    6.99302  0.04%  22.7    0s

Explored 274 nodes (7564 simplex iterations) in 0.42 seconds
Thread count was 4 (of 4 available processors)

Solution count 2: 6.99048 6.98766 

Optimal solution found (tolerance 1.00e-04)
Best objective 6.990480393035e+00, best bound 6.990480393035e+00, gap 0.0000%

Gurobi 8.1.0 (linux64, Python) logging started Mon May  6 00:39:35 2019

Academic license - for non-commercial use only
Changed value of parameter Heuristics to 0.0
   Prev: 0.05  Min: 0.0  Max: 1.0  Default: 0.05
Changed value of parameter Cuts to 0
   Prev: -1  Min: -1  Max: 3  Default: -1
Optimize a model with 1075 rows, 821 columns and 5359 nonzeros
Variable types: 8 continuous, 813 integer (21 binary)
Coefficient statistics:
  Matrix range     [1e+00, 1e+06]
  Objective range  [1e-04, 1e+00]
  Bounds range     [1e+00, 2e+02]
  RHS range        [1e+00, 1e+06]
Presolve removed 114 rows and 126 columns
Presolve time: 0.01s
Presolved: 961 rows, 695 columns, 4737 nonzeros
Variable types: 8 continuous, 687 integer (336 binary)

Root relaxation: objective 6.994519e+00, 630 iterations, 0.02 seconds

    Nodes    |    Current Node    |     Objective Bounds      |     Work
 Expl Unexpl |  Obj  Depth IntInf | Incumbent    BestBd   Gap | It/Node Time

     0     0    6.99452    0   91          -    6.99452      -     -    0s
     0     0    6.99452    0   91          -    6.99452      -     -    0s
     0     2    6.99452    0   91          -    6.99452      -     -    0s
*  146   140              46       5.9663072    6.99386  17.2%  24.4    0s
*  167    83              72       6.9715082    6.99379  0.32%  22.1    0s
*  268   164              47       6.9753335    6.99354  0.26%  20.3    0s
*  380   167              29       6.9808561    6.99336  0.18%  18.0    0s
*  571   271              30       6.9809446    6.99303  0.17%  16.0    0s
*  672   317              43       6.9813322    6.99303  0.17%  14.9    0s
* 1278   446              49       6.9815880    6.98923  0.11%   7.6    1s
 23266  6091     cutoff   61         6.98159    6.98294  0.02%  10.8    5s
 56514  7587     cutoff   59         6.98159    6.98294  0.02%  10.6   10s
 83055  9219     cutoff   50         6.98159    6.98294  0.02%  11.0   15s
 115075 11593    6.98266   49   22    6.98159    6.98294  0.02%  10.8   20s
 142533 13468     cutoff   54         6.98159    6.98294  0.02%  10.7   25s
 173828 15684     cutoff   56         6.98159    6.98294  0.02%  10.7   30s
 201409 17160     cutoff   49         6.98159    6.98294  0.02%  10.6   35s
 229986 19547     cutoff   59         6.98159    6.98290  0.02%  10.5   40s
 259698 20552     cutoff   65         6.98159    6.98290  0.02%  10.3   45s
 296818 22042     cutoff   63         6.98159    6.98290  0.02%  10.2   50s
 330337 23235     cutoff   49         6.98159    6.98286  0.02%  10.1   55s
 367351 21561     cutoff   60         6.98159    6.98285  0.02%   9.9   60s
 406853 23016    6.98285   52   12    6.98159    6.98285  0.02%   9.8   65s
 435689 25271    6.98285   58   23    6.98159    6.98285  0.02%   9.8   70s
 452129 25206     cutoff   66         6.98159    6.98282  0.02%   9.8   75s
 482330 26272    6.98281   47   14    6.98159    6.98281  0.02%   9.8   80s
 500308 26871     cutoff   62         6.98159    6.98281  0.02%   9.7   85s
 524615 26450     cutoff   63         6.98159    6.98278  0.02%   9.6   90s
 555355 26958     cutoff   50         6.98159    6.98275  0.02%   9.6   95s
 580272 27570     cutoff   59         6.98159    6.98275  0.02%   9.6  100s
 606928 28498     cutoff   54         6.98159    6.98275  0.02%   9.5  105s
 631296 29375    6.98245   53   23    6.98159    6.98275  0.02%   9.4  110s
 669779 29608     cutoff   57         6.98159    6.98271  0.02%   9.3  115s
 704282 29961    6.98268   64   10    6.98159    6.98268  0.02%   9.3  120s
 738176 29826     cutoff   60         6.98159    6.98262  0.01%   9.2  125s
 769121 30198     cutoff   46         6.98159    6.98259  0.01%   9.1  130s
 804710 29923    6.98251   64    3    6.98159    6.98251  0.01%   9.1  135s
 842240 29562    6.98248   54   19    6.98159    6.98248  0.01%   9.0  140s
 879338 28581     cutoff   70         6.98159    6.98242  0.01%   8.9  145s
 923087 28104     cutoff   51         6.98159    6.98238  0.01%   8.8  150s
 965364 26651    6.98233   51    8    6.98159    6.98233  0.01%   8.7  155s
 1008758 23944     cutoff   58         6.98159    6.98229  0.01%   8.7  160s

Explored 1010170 nodes (8747701 simplex iterations) in 160.17 seconds
Thread count was 4 (of 4 available processors)

Solution count 7: 6.98159 6.98133 6.98094 ... 5.96631

Optimal solution found (tolerance 1.00e-04)
Best objective 6.981588011479e+00, best bound 6.982284601321e+00, gap 0.0100%

Gurobi 8.1.0 (linux64, Python) logging started Mon May  6 00:43:42 2019

Academic license - for non-commercial use only
Changed value of parameter Heuristics to 0.0
   Prev: 0.05  Min: 0.0  Max: 1.0  Default: 0.05
Changed value of parameter Cuts to 0
   Prev: -1  Min: -1  Max: 3  Default: -1
Optimize a model with 1075 rows, 821 columns and 5359 nonzeros
Variable types: 8 continuous, 813 integer (21 binary)
Coefficient statistics:
  Matrix range     [1e+00, 1e+06]
  Objective range  [1e-04, 1e+00]
  Bounds range     [1e+00, 2e+02]
  RHS range        [1e+00, 1e+06]
Presolve removed 195 rows and 186 columns
Presolve time: 0.03s
Presolved: 880 rows, 635 columns, 4290 nonzeros
Variable types: 8 continuous, 627 integer (318 binary)

Root relaxation: objective 6.990643e+00, 690 iterations, 0.02 seconds

    Nodes    |    Current Node    |     Objective Bounds      |     Work
 Expl Unexpl |  Obj  Depth IntInf | Incumbent    BestBd   Gap | It/Node Time

     0     0    6.99064    0   88          -    6.99064      -     -    0s
     0     0    6.99064    0   86          -    6.99064      -     -    0s
     0     2    6.99064    0   86          -    6.99064      -     -    0s
*  139    75              50       5.9684623    6.98550  17.0%  19.1    0s
*  273   108              50       5.9755381    6.98418  16.9%  14.7    0s
*  341   114              30       5.9782613    6.98161  16.8%  13.2    0s
*  510   192              23       5.9789525    5.99146  0.21%  11.5    0s
*  546   187              36       5.9793263    5.99146  0.20%  11.2    0s
*  623   221              29       5.9801884    5.99146  0.19%  10.8    0s
*  699   243              27       5.9811807    5.99113  0.17%  10.3    0s
* 1258   443              28       5.9813578    5.99010  0.15%   8.8    0s

Explored 6335 nodes (65728 simplex iterations) in 2.35 seconds
Thread count was 4 (of 4 available processors)

Solution count 8: 5.98136 5.98118 5.98019 ... 5.96846

Optimal solution found (tolerance 1.00e-04)
Best objective 5.981357785197e+00, best bound 5.981357785197e+00, gap 0.0000%

Gurobi 8.1.0 (linux64, Python) logging started Mon May  6 00:43:49 2019

Academic license - for non-commercial use only
Changed value of parameter Heuristics to 0.0
   Prev: 0.05  Min: 0.0  Max: 1.0  Default: 0.05
Changed value of parameter Cuts to 0
   Prev: -1  Min: -1  Max: 3  Default: -1
Optimize a model with 1075 rows, 821 columns and 5359 nonzeros
Variable types: 8 continuous, 813 integer (21 binary)
Coefficient statistics:
  Matrix range     [1e+00, 1e+06]
  Objective range  [1e-04, 1e+00]
  Bounds range     [1e+00, 2e+02]
  RHS range        [1e+00, 1e+06]
Presolve removed 114 rows and 126 columns
Presolve time: 0.01s
Presolved: 961 rows, 695 columns, 4743 nonzeros
Variable types: 8 continuous, 687 integer (336 binary)

Root relaxation: objective 6.994316e+00, 658 iterations, 0.02 seconds

    Nodes    |    Current Node    |     Objective Bounds      |     Work
 Expl Unexpl |  Obj  Depth IntInf | Incumbent    BestBd   Gap | It/Node Time

     0     0    6.99432    0   55          -    6.99432      -     -    0s
     0     0    6.99432    0   55          -    6.99432      -     -    0s
     0     2    6.99432    0   55          -    6.99432      -     -    0s
*  111    98              42       6.9670633    6.99401  0.39%  17.8    0s
*  121    91              50       6.9811125    6.99389  0.18%  17.1    0s
*  270   155              30       6.9853250    6.99322  0.11%  13.7    0s
*  383   180              21       6.9857847    6.99301  0.10%  12.6    0s
*  723   300              17       6.9865799    6.99243  0.08%  12.0    0s
* 2571   324              47       6.9880397    6.99027  0.03%  10.2    1s

Explored 3609 nodes (49043 simplex iterations) in 1.68 seconds
Thread count was 4 (of 4 available processors)

Solution count 6: 6.98804 6.98658 6.98578 ... 6.96706

Optimal solution found (tolerance 1.00e-04)
Best objective 6.988039677985e+00, best bound 6.988497160844e+00, gap 0.0065%

Gurobi 8.1.0 (linux64, Python) logging started Mon May  6 00:43:55 2019

Academic license - for non-commercial use only
Changed value of parameter Heuristics to 0.0
   Prev: 0.05  Min: 0.0  Max: 1.0  Default: 0.05
Changed value of parameter Cuts to 0
   Prev: -1  Min: -1  Max: 3  Default: -1
Optimize a model with 1075 rows, 821 columns and 5359 nonzeros
Variable types: 8 continuous, 813 integer (21 binary)
Coefficient statistics:
  Matrix range     [1e+00, 1e+06]
  Objective range  [1e-04, 1e+00]
  Bounds range     [1e+00, 2e+02]
  RHS range        [1e+00, 1e+06]
Presolve removed 114 rows and 126 columns
Presolve time: 0.01s
Presolved: 961 rows, 695 columns, 4743 nonzeros
Variable types: 8 continuous, 687 integer (336 binary)

Root relaxation: objective 6.991591e+00, 799 iterations, 0.03 seconds

    Nodes    |    Current Node    |     Objective Bounds      |     Work
 Expl Unexpl |  Obj  Depth IntInf | Incumbent    BestBd   Gap | It/Node Time

     0     0    6.99159    0  110          -    6.99159      -     -    0s
     0     0    6.99159    0  110          -    6.99159      -     -    0s
     0     2    6.99159    0  110          -    6.99159      -     -    0s
*  116    91              63       5.9722930    6.99085  17.1%  23.4    0s
*  163    63              56       6.9705388    6.99080  0.29%  19.8    0s
*  234   100              43       6.9725248    6.99080  0.26%  15.7    0s
*  235   100              43       6.9736495    6.99080  0.25%  15.7    0s
*  269    97              23       6.9745246    6.99080  0.23%  14.6    0s
*  395   173              37       6.9767409    6.99071  0.20%  13.4    0s
*  442   194              30       6.9767489    6.99071  0.20%  13.5    0s
*  523   203              18       6.9789683    6.99059  0.17%  12.7    0s
*  688   273              37       6.9801920    6.99031  0.14%  11.5    0s
* 1262   452              60       6.9806566    6.98985  0.13%   8.1    1s
* 1286   374              73       6.9818386    6.98985  0.11%   8.2    1s
* 1476   385              49       6.9818469    6.98954  0.11%   8.8    1s
* 1707   431              53       6.9818830    6.98894  0.10%   9.0    1s
 18682  2948    6.98210   37    6    6.98188    6.98411  0.03%  12.7    5s

Explored 40196 nodes (455692 simplex iterations) in 8.47 seconds
Thread count was 4 (of 4 available processors)

Solution count 10: 6.98188 6.98185 6.98184 ... 6.97365

Optimal solution found (tolerance 1.00e-04)
Best objective 6.981883008765e+00, best bound 6.982568267252e+00, gap 0.0098%

Gurobi 8.1.0 (linux64, Python) logging started Mon May  6 00:54:00 2019

Academic license - for non-commercial use only

Gurobi 8.1.0 (linux64, Python) logging started Mon May  6 00:54:18 2019

Academic license - for non-commercial use only

Gurobi 8.1.0 (linux64, Python) logging started Mon May  6 00:55:30 2019

Academic license - for non-commercial use only

Gurobi 8.1.0 (linux64, Python) logging started Mon May  6 00:55:48 2019

Academic license - for non-commercial use only
Changed value of parameter Heuristics to 0.0
   Prev: 0.05  Min: 0.0  Max: 1.0  Default: 0.05
Changed value of parameter Cuts to 0
   Prev: -1  Min: -1  Max: 3  Default: -1
Optimize a model with 335 rows, 264 columns and 1362 nonzeros
Variable types: 3 continuous, 261 integer (9 binary)
Coefficient statistics:
  Matrix range     [1e+00, 1e+06]
  Objective range  [1e-03, 1e+00]
  Bounds range     [1e+00, 2e+02]
  RHS range        [1e+00, 1e+06]
Presolve removed 62 rows and 66 columns
Presolve time: 0.00s
Presolved: 273 rows, 198 columns, 1089 nonzeros
Variable types: 3 continuous, 195 integer (96 binary)

Root relaxation: objective 2.987368e+00, 102 iterations, 0.00 seconds

    Nodes    |    Current Node    |     Objective Bounds      |     Work
 Expl Unexpl |  Obj  Depth IntInf | Incumbent    BestBd   Gap | It/Node Time

     0     0    2.98737    0    4          -    2.98737      -     -    0s
     0     0    2.98737    0    4          -    2.98737      -     -    0s
     0     2    2.98737    0    4          -    2.98737      -     -    0s
*    2     2               1       2.9866926    2.98737  0.02%   5.5    0s

Explored 10 nodes (245 simplex iterations) in 0.02 seconds
Thread count was 4 (of 4 available processors)

Solution count 1: 2.98669 

Optimal solution found (tolerance 1.00e-04)
Best objective 2.986692593920e+00, best bound 2.986692593920e+00, gap 0.0000%

Gurobi 8.1.0 (linux64, Python) logging started Mon May  6 00:55:52 2019

Academic license - for non-commercial use only
Changed value of parameter Heuristics to 0.0
   Prev: 0.05  Min: 0.0  Max: 1.0  Default: 0.05
Changed value of parameter Cuts to 0
   Prev: -1  Min: -1  Max: 3  Default: -1
Optimize a model with 335 rows, 264 columns and 1362 nonzeros
Variable types: 3 continuous, 261 integer (9 binary)
Coefficient statistics:
  Matrix range     [1e+00, 1e+06]
  Objective range  [9e-04, 1e+00]
  Bounds range     [1e+00, 2e+02]
  RHS range        [1e+00, 1e+06]
Presolve removed 62 rows and 66 columns
Presolve time: 0.00s
Presolved: 273 rows, 198 columns, 1089 nonzeros
Variable types: 3 continuous, 195 integer (96 binary)

Root relaxation: objective 2.989525e+00, 105 iterations, 0.00 seconds

    Nodes    |    Current Node    |     Objective Bounds      |     Work
 Expl Unexpl |  Obj  Depth IntInf | Incumbent    BestBd   Gap | It/Node Time

     0     0    2.98952    0    4          -    2.98952      -     -    0s
     0     0    2.98952    0    4          -    2.98952      -     -    0s
     0     2    2.98952    0    4          -    2.98952      -     -    0s
*    2     2               1       2.9872636    2.98952  0.08%   7.5    0s

Explored 13 nodes (210 simplex iterations) in 0.02 seconds
Thread count was 4 (of 4 available processors)

Solution count 1: 2.98726 

Optimal solution found (tolerance 1.00e-04)
Best objective 2.987263563406e+00, best bound 2.987263563406e+00, gap 0.0000%

Gurobi 8.1.0 (linux64, Python) logging started Mon May  6 00:55:55 2019

Academic license - for non-commercial use only
Changed value of parameter Heuristics to 0.0
   Prev: 0.05  Min: 0.0  Max: 1.0  Default: 0.05
Changed value of parameter Cuts to 0
   Prev: -1  Min: -1  Max: 3  Default: -1
Optimize a model with 335 rows, 264 columns and 1362 nonzeros
Variable types: 3 continuous, 261 integer (9 binary)
Coefficient statistics:
  Matrix range     [1e+00, 1e+06]
  Objective range  [3e-03, 1e+00]
  Bounds range     [1e+00, 2e+02]
  RHS range        [1e+00, 1e+06]
Presolve removed 123 rows and 93 columns
Presolve time: 0.01s
Presolved: 212 rows, 171 columns, 842 nonzeros
Variable types: 2 continuous, 169 integer (82 binary)

Root relaxation: objective 2.975272e+00, 109 iterations, 0.00 seconds

    Nodes    |    Current Node    |     Objective Bounds      |     Work
 Expl Unexpl |  Obj  Depth IntInf | Incumbent    BestBd   Gap | It/Node Time

     0     0    2.97527    0    9          -    2.97527      -     -    0s
     0     0    2.97527    0    9          -    2.97527      -     -    0s
     0     0    2.97527    0   13          -    2.97527      -     -    0s
     0     0    2.97527    0   13          -    2.97527      -     -    0s
     0     2    2.97527    0    9          -    2.97527      -     -    0s
*    9     9               4       2.9736360    2.97364  0.00%   7.3    0s

Explored 11 nodes (467 simplex iterations) in 0.04 seconds
Thread count was 4 (of 4 available processors)

Solution count 1: 2.97364 

Optimal solution found (tolerance 1.00e-04)
Best objective 2.973636012746e+00, best bound 2.973636012746e+00, gap 0.0000%

Gurobi 8.1.0 (linux64, Python) logging started Mon May  6 00:55:58 2019

Academic license - for non-commercial use only
Changed value of parameter Heuristics to 0.0
   Prev: 0.05  Min: 0.0  Max: 1.0  Default: 0.05
Changed value of parameter Cuts to 0
   Prev: -1  Min: -1  Max: 3  Default: -1
Optimize a model with 335 rows, 264 columns and 1362 nonzeros
Variable types: 3 continuous, 261 integer (9 binary)
Coefficient statistics:
  Matrix range     [1e+00, 1e+06]
  Objective range  [2e-03, 1e+00]
  Bounds range     [1e+00, 2e+02]
  RHS range        [1e+00, 1e+06]
Presolve removed 77 rows and 78 columns
Presolve time: 0.01s
Presolved: 258 rows, 186 columns, 1017 nonzeros
Variable types: 3 continuous, 183 integer (90 binary)

Root relaxation: objective 2.980445e+00, 121 iterations, 0.00 seconds

    Nodes    |    Current Node    |     Objective Bounds      |     Work
 Expl Unexpl |  Obj  Depth IntInf | Incumbent    BestBd   Gap | It/Node Time

     0     0    2.98045    0    4          -    2.98045      -     -    0s
     0     0    2.98045    0    4          -    2.98045      -     -    0s
     0     2    2.98045    0    4          -    2.98045      -     -    0s
*   18     3               6       2.9690499    2.97757  0.29%   7.4    0s
*   48     4              10       2.9707034    2.97455  0.13%   5.0    0s

Explored 66 nodes (420 simplex iterations) in 0.03 seconds
Thread count was 4 (of 4 available processors)

Solution count 2: 2.9707 2.96905 

Optimal solution found (tolerance 1.00e-04)
Best objective 2.970703393517e+00, best bound 2.970703393517e+00, gap 0.0000%

Gurobi 8.1.0 (linux64, Python) logging started Mon May  6 00:56:01 2019

Academic license - for non-commercial use only
Changed value of parameter Heuristics to 0.0
   Prev: 0.05  Min: 0.0  Max: 1.0  Default: 0.05
Changed value of parameter Cuts to 0
   Prev: -1  Min: -1  Max: 3  Default: -1
Optimize a model with 335 rows, 264 columns and 1362 nonzeros
Variable types: 3 continuous, 261 integer (9 binary)
Coefficient statistics:
  Matrix range     [1e+00, 1e+06]
  Objective range  [2e-03, 1e+00]
  Bounds range     [1e+00, 2e+02]
  RHS range        [1e+00, 1e+06]
Presolve removed 62 rows and 66 columns
Presolve time: 0.00s
Presolved: 273 rows, 198 columns, 1092 nonzeros
Variable types: 3 continuous, 195 integer (96 binary)

Root relaxation: objective 2.982882e+00, 127 iterations, 0.00 seconds

    Nodes    |    Current Node    |     Objective Bounds      |     Work
 Expl Unexpl |  Obj  Depth IntInf | Incumbent    BestBd   Gap | It/Node Time

     0     0    2.98288    0    4          -    2.98288      -     -    0s
     0     0    2.98288    0    4          -    2.98288      -     -    0s
     0     2    2.98288    0    4          -    2.98288      -     -    0s
*   83     3              11       1.9718397    1.97685  0.25%   3.5    0s

Explored 135 nodes (573 simplex iterations) in 0.04 seconds
Thread count was 4 (of 4 available processors)

Solution count 1: 1.97184 

Optimal solution found (tolerance 1.00e-04)
Best objective 1.971839670962e+00, best bound 1.971839670962e+00, gap 0.0000%

Gurobi 8.1.0 (linux64, Python) logging started Mon May  6 00:56:15 2019

Academic license - for non-commercial use only
Changed value of parameter Heuristics to 0.0
   Prev: 0.05  Min: 0.0  Max: 1.0  Default: 0.05
Changed value of parameter Cuts to 0
   Prev: -1  Min: -1  Max: 3  Default: -1
Optimize a model with 1072 rows, 820 columns and 4978 nonzeros
Variable types: 7 continuous, 813 integer (21 binary)
Coefficient statistics:
  Matrix range     [1e+00, 1e+06]
  Objective range  [1e-03, 1e+00]
  Bounds range     [1e+00, 2e+02]
  RHS range        [1e+00, 1e+06]
Presolve removed 114 rows and 126 columns
Presolve time: 0.01s
Presolved: 958 rows, 694 columns, 4434 nonzeros
Variable types: 7 continuous, 687 integer (336 binary)

Root relaxation: objective 6.981893e+00, 532 iterations, 0.01 seconds

    Nodes    |    Current Node    |     Objective Bounds      |     Work
 Expl Unexpl |  Obj  Depth IntInf | Incumbent    BestBd   Gap | It/Node Time

     0     0    6.98189    0   16          -    6.98189      -     -    0s
     0     0    6.98189    0   15          -    6.98189      -     -    0s
     0     2    6.98189    0   15          -    6.98189      -     -    0s
*   73    52              31       6.9668894    6.98125  0.21%  11.3    0s
*   83    63              31       6.9686910    6.98125  0.18%  10.6    0s
*  139   103              25       6.9710971    6.98095  0.14%  11.6    0s
*  205   129              24       6.9737277    6.98071  0.10%  13.5    0s
*  229   138              16       6.9745452    6.98071  0.09%  13.4    0s
*  245   133               8       6.9761549    6.98071  0.07%  13.4    0s
* 1026   193              14       6.9769285    6.97879  0.03%  10.5    0s
* 1363    73              12       6.9774400    6.97824  0.01%   9.6    0s

Explored 1431 nodes (14405 simplex iterations) in 0.78 seconds
Thread count was 4 (of 4 available processors)

Solution count 8: 6.97744 6.97693 6.97615 ... 6.96689

Optimal solution found (tolerance 1.00e-04)
Best objective 6.977439988314e+00, best bound 6.977922471004e+00, gap 0.0069%

Gurobi 8.1.0 (linux64, Python) logging started Mon May  6 00:56:19 2019

Academic license - for non-commercial use only
Changed value of parameter Heuristics to 0.0
   Prev: 0.05  Min: 0.0  Max: 1.0  Default: 0.05
Changed value of parameter Cuts to 0
   Prev: -1  Min: -1  Max: 3  Default: -1
Optimize a model with 1072 rows, 820 columns and 4978 nonzeros
Variable types: 7 continuous, 813 integer (21 binary)
Coefficient statistics:
  Matrix range     [1e+00, 1e+06]
  Objective range  [1e-03, 1e+00]
  Bounds range     [1e+00, 2e+02]
  RHS range        [1e+00, 1e+06]
Presolve removed 114 rows and 126 columns
Presolve time: 0.01s
Presolved: 958 rows, 694 columns, 4431 nonzeros
Variable types: 7 continuous, 687 integer (336 binary)

Root relaxation: objective 6.983556e+00, 546 iterations, 0.02 seconds

    Nodes    |    Current Node    |     Objective Bounds      |     Work
 Expl Unexpl |  Obj  Depth IntInf | Incumbent    BestBd   Gap | It/Node Time

     0     0    6.98356    0   14          -    6.98356      -     -    0s
     0     0    6.98356    0   14          -    6.98356      -     -    0s
     0     2    6.98356    0   14          -    6.98356      -     -    0s
*   44    26              19       6.9782352    6.98324  0.07%  14.5    0s
*  113    47              13       6.9791073    6.98252  0.05%  11.7    0s
*  182    44              13       6.9793574    6.98225  0.04%  10.4    0s
*  311    46              19       6.9794264    6.98135  0.03%  10.9    0s
*  370     3              15       6.9803879    6.98083  0.01%  10.7    0s

Explored 405 nodes (4865 simplex iterations) in 0.52 seconds
Thread count was 4 (of 4 available processors)

Solution count 5: 6.98039 6.97943 6.97936 ... 6.97824

Optimal solution found (tolerance 1.00e-04)
Best objective 6.980387858085e+00, best bound 6.980829223740e+00, gap 0.0063%

Gurobi 8.1.0 (linux64, Python) logging started Mon May  6 00:56:23 2019

Academic license - for non-commercial use only
Changed value of parameter Heuristics to 0.0
   Prev: 0.05  Min: 0.0  Max: 1.0  Default: 0.05
Changed value of parameter Cuts to 0
   Prev: -1  Min: -1  Max: 3  Default: -1
Optimize a model with 1072 rows, 820 columns and 4978 nonzeros
Variable types: 7 continuous, 813 integer (21 binary)
Coefficient statistics:
  Matrix range     [1e+00, 1e+06]
  Objective range  [6e-04, 1e+00]
  Bounds range     [1e+00, 2e+02]
  RHS range        [1e+00, 1e+06]
Presolve removed 195 rows and 186 columns
Presolve time: 0.03s
Presolved: 877 rows, 634 columns, 4014 nonzeros
Variable types: 7 continuous, 627 integer (318 binary)

Root relaxation: objective 6.971930e+00, 489 iterations, 0.02 seconds

    Nodes    |    Current Node    |     Objective Bounds      |     Work
 Expl Unexpl |  Obj  Depth IntInf | Incumbent    BestBd   Gap | It/Node Time

     0     0    6.97193    0   14          -    6.97193      -     -    0s
     0     0    6.97193    0   14          -    6.97193      -     -    0s
     0     2    6.97193    0   14          -    6.97193      -     -    0s
*  104    38              17       5.9762844    5.98231  0.10%  12.7    0s
*  150    43              15       5.9763515    5.98196  0.09%  11.3    0s
*  158    43              19       5.9763569    5.98196  0.09%  11.1    0s
*  164    40              17       5.9781521    5.98164  0.06%  10.8    0s
*  224    45              18       5.9782827    5.98086  0.04%  10.0    0s
*  281    22              15       5.9791670    5.98039  0.02%  10.0    0s

Explored 316 nodes (3614 simplex iterations) in 0.43 seconds
Thread count was 4 (of 4 available processors)

Solution count 6: 5.97917 5.97828 5.97815 ... 5.97628

Optimal solution found (tolerance 1.00e-04)
Best objective 5.979167010082e+00, best bound 5.979167010082e+00, gap 0.0000%

Gurobi 8.1.0 (linux64, Python) logging started Mon May  6 00:56:27 2019

Academic license - for non-commercial use only
Changed value of parameter Heuristics to 0.0
   Prev: 0.05  Min: 0.0  Max: 1.0  Default: 0.05
Changed value of parameter Cuts to 0
   Prev: -1  Min: -1  Max: 3  Default: -1
Optimize a model with 1072 rows, 820 columns and 4978 nonzeros
Variable types: 7 continuous, 813 integer (21 binary)
Coefficient statistics:
  Matrix range     [1e+00, 1e+06]
  Objective range  [6e-04, 1e+00]
  Bounds range     [1e+00, 2e+02]
  RHS range        [1e+00, 1e+06]
Presolve removed 114 rows and 126 columns
Presolve time: 0.01s
Presolved: 958 rows, 694 columns, 4434 nonzeros
Variable types: 7 continuous, 687 integer (336 binary)

Root relaxation: objective 6.982949e+00, 485 iterations, 0.01 seconds

    Nodes    |    Current Node    |     Objective Bounds      |     Work
 Expl Unexpl |  Obj  Depth IntInf | Incumbent    BestBd   Gap | It/Node Time

     0     0    6.98295    0   16          -    6.98295      -     -    0s
     0     0    6.98295    0   16          -    6.98295      -     -    0s
     0     2    6.98295    0   16          -    6.98295      -     -    0s
*   42    33              14       6.9751360    6.98265  0.11%  16.0    0s
*   93    57              23       6.9764654    6.98153  0.07%  13.0    0s
*  108    59              23       6.9764807    6.98128  0.07%  11.8    0s
*  126    23               9       6.9797357    6.98128  0.02%  11.5    0s

Explored 183 nodes (2493 simplex iterations) in 0.26 seconds
Thread count was 4 (of 4 available processors)

Solution count 4: 6.97974 6.97648 6.97647 6.97514 

Optimal solution found (tolerance 1.00e-04)
Best objective 6.979735654853e+00, best bound 6.979735654853e+00, gap 0.0000%

Gurobi 8.1.0 (linux64, Python) logging started Mon May  6 00:56:30 2019

Academic license - for non-commercial use only
Changed value of parameter Heuristics to 0.0
   Prev: 0.05  Min: 0.0  Max: 1.0  Default: 0.05
Changed value of parameter Cuts to 0
   Prev: -1  Min: -1  Max: 3  Default: -1
Optimize a model with 1072 rows, 820 columns and 4978 nonzeros
Variable types: 7 continuous, 813 integer (21 binary)
Coefficient statistics:
  Matrix range     [1e+00, 1e+06]
  Objective range  [9e-04, 1e+00]
  Bounds range     [1e+00, 2e+02]
  RHS range        [1e+00, 1e+06]
Presolve removed 114 rows and 126 columns
Presolve time: 0.02s
Presolved: 958 rows, 694 columns, 4434 nonzeros
Variable types: 7 continuous, 687 integer (336 binary)

Root relaxation: objective 6.974775e+00, 656 iterations, 0.03 seconds

    Nodes    |    Current Node    |     Objective Bounds      |     Work
 Expl Unexpl |  Obj  Depth IntInf | Incumbent    BestBd   Gap | It/Node Time

     0     0    6.97477    0   81          -    6.97477      -     -    0s
     0     0    6.97477    0   80          -    6.97477      -     -    0s
     0     2    6.97477    0   80          -    6.97477      -     -    0s
*   70    55              24       5.9693274    6.97461  16.8%  13.6    0s
*  115    65              40       6.9505309    6.97461  0.35%  11.5    0s
*  129    73              30       6.9535330    6.97461  0.30%  11.0    0s
*  174    90              23       6.9655780    6.97461  0.13%  10.4    0s
*  232    79              33       6.9695008    6.97460  0.07%   9.8    0s
*  279    91              15       6.9698386    6.97438  0.07%  10.3    0s
*  457   158              15       6.9702180    6.97429  0.06%  10.3    0s
*  533    56              11       6.9729230    6.97420  0.02%  10.2    0s

Explored 702 nodes (7669 simplex iterations) in 0.60 seconds
Thread count was 4 (of 4 available processors)

Solution count 8: 6.97292 6.97022 6.96984 ... 5.96933

Optimal solution found (tolerance 1.00e-04)
Best objective 6.972922970261e+00, best bound 6.973517339695e+00, gap 0.0085%
